GLPSOL: GLPK LP/MIP Solver, v4.55
Parameter(s) specified in the command line:
 -m tmp.mod
Reading model section from tmp.mod...
Reading data section from tmp.mod...
6927 lines were read
Generating obj...
Generating kirhoff...
Generating init_charge...
Generating batt_size...
Model has been successfully generated
GLPK Simplex Optimizer, v4.55
7717 rows, 12759 columns, 27202 non-zeros
Preprocessing...
6223 rows, 12544 columns, 26767 non-zeros
Scaling...
 A: min|aij| =  1.000e+00  max|aij| =  1.000e+00  ratio =  1.000e+00
Problem data seem to be well scaled
Constructing initial basis...
Size of triangular part is 5124
      0: obj =   0.000000000e+00  infeas =  5.868e+03 (1099)
    500: obj =   2.000000000e+00  infeas =  4.302e+03 (941)
   1000: obj =   6.000000000e+01  infeas =  3.064e+03 (743)
   1500: obj =   2.610000000e+02  infeas =  1.944e+03 (654)
   2000: obj =   5.050000000e+02  infeas =  4.790e+02 (603)
*  2402: obj =   6.800000000e+02  infeas =  0.000e+00 (576)
*  2500: obj =   5.810000000e+02  infeas =  0.000e+00 (573)
*  3000: obj =   1.540000000e+02  infeas =  0.000e+00 (562)
*  3192: obj =   1.100000000e+02  infeas =  0.000e+00 (562)
OPTIMAL LP SOLUTION FOUND
Time used:   1.4 secs
Memory used: 24.7 Mb (25883529 bytes)
#OUTPUT:
110
0 -61 -46 6 -104 -95 -42 -2 -29 1 -7 -7 -15 -32 -4 3 -32 0 -10 0 1 -9 1 0 0 -1 -42 -8 0 0 0 -1 -6 -1 -1 0 8 -5 -3 0 8 -1 0 -1 0 0 0 0 0 -31 0 0 0 0 0 -10 0 -5 0 -1 0 0 8 0 0 0 0 0 0 -6 0 0 0 8 0 -9 0 0 0 0 0 0 0 0 0 -57 0 0 9 0 -3 0 0 0 -3 0 0 0 0 0 0 0 0 0 0 5 0 -1 -1 0 0 0 1 7 0 0 32 0 0 -9 2 0 0 0 -11 2 0 0 0 0 -54 0 0 0 0 0 0 0 0 -8 0 8 0 0 0 0 0 0 0 0 -6 1 8 2 -2 -6 16 -4 0 0 1 0 0 3 0 0 0 0 0 0 0 0 0 -6 0 0 0 0 0 -5 -3 0 0 0 0 4 0 0 0 0 0 0 -7 0 0 0 0 0 0 0 1 0 -7 0 -23 0 0 0 18 0 0 -4 0 0 0 0 5 2 0 0 0 0 0 0 0 54 0 0 0 0 0 0 0 0 0 -20 0 -5 0 0 0 0 0 -8 0 -4 0 0 0 0 0 0 0 0 0 0 0 0 -4 0 0 0 0 0 0 0 0 0 0 0 0 -80 0 0 0 0 0 0 0 9 5 0 0 0 0 0 -54 0 0 0 0 0 0 0 0 0 0 0 2 0 0 -1 -1 0 -28 8 0 0 0 0 -22 0 0 0 0 0 0 0 0 0 0 3 -29 0 0 0 0 0 12 0 0 0 0 0 0 0 0 0 0 0 5 0 0 0 0 0 0 0 -1 9 0 0 0 0 0 -7 0 0 2 0 8 0 0 4 1 0 0 0 1 -1 1 -5 -32 0 0 0 -1 0 0 -8 0 2 -23 0 0 0 3 0 -4 0 0 0 0 -5 9 0 -5 0 0 0 0 0 0 0 0 0 0 0 0 0 -1 0 1 0 -14 18 0 -9 -5 0 54 8 0 0 -2 0 0 1 1 26 -8 0 0 0 0 -2 -34 -1 0 -6 -6 0 -5 0 0 0 0 0 1 -9 0 0 8 -1 0 0 -2 -8 0 0 0 0 0 0 0 0 0 0 0 0 0 0 0 0 0 0 0 0 0 0 0 0 0 0 0 0 0 0 0 0 0 0 0 0 0 0 0 0 0 0 0 0 0 0 0 0 0 0 0 0 0 0 0 0 0 0 0 0 0 0 0 0 0 0 0 
-34 -66 -13 -28 -104 -101 -37 0 0 -2 -3 -3 -57 0 0 -3 0 0 0 -1 0 -9 0 -1 0 -5 -37 0 0 0 0 -9 -6 -8 1 2 0 0 -3 0 0 -6 0 0 0 24 0 0 0 -31 9 -1 0 0 0 0 0 0 0 0 0 0 0 0 0 0 0 -5 0 -6 0 0 0 0 0 0 0 0 1 0 0 0 -18 -63 0 10 0 0 0 0 0 0 0 1 0 24 0 0 0 0 0 0 1 0 0 0 0 0 0 0 24 0 0 -23 0 0 0 0 0 -9 2 0 0 0 0 0 0 -9 0 0 -49 0 0 0 0 0 0 1 0 0 0 -66 0 0 0 0 0 0 0 0 -6 0 0 0 -2 -6 0 0 0 0 0 0 0 0 0 0 0 0 1 0 0 0 0 -6 0 0 0 0 0 0 0 -1 0 0 0 0 0 0 0 0 0 0 0 0 -55 0 0 0 0 0 0 0 0 0 1 0 0 0 10 0 0 -49 0 0 0 0 0 0 0 0 -6 0 0 0 0 50 0 0 0 -1 0 0 0 0 0 0 0 0 0 0 0 0 0 0 0 1 0 0 0 1 0 0 0 0 0 0 0 -1 1 0 0 0 0 0 0 0 0 0 0 0 0 0 0 0 0 0 0 0 9 0 5 0 0 -1 0 0 -49 0 0 0 0 0 0 0 0 0 0 0 0 0 0 -81 0 0 -90 0 0 0 0 0 0 0 0 0 0 0 0 0 0 0 0 0 0 0 0 9 0 0 12 0 0 0 0 0 0 0 0 0 0 0 0 0 0 0 0 0 0 0 0 -2 0 0 0 0 0 0 0 0 0 0 0 0 7 -3 -1 0 0 0 0 0 0 25 0 0 0 0 0 0 0 0 0 2 0 0 0 0 0 0 0 0 0 0 0 -5 0 0 0 0 6 0 0 1 0 0 0 0 0 0 -1 0 0 0 0 1 -11 10 0 0 -5 1 49 0 0 0 0 0 0 -7 0 90 0 0 0 0 0 0 0 -5 -9 -6 -6 0 0 0 0 0 0 0 0 2 0 0 5 -5 0 0 0 0 0 0 0 0 0 0 0 0 0 0 0 0 0 0 0 0 0 0 0 0 0 0 0 0 0 0 0 0 0 0 0 0 0 0 0 0 0 0 0 0 0 0 0 0 0 0 0 0 0 0 0 0 0 0 0 0 0 0 0 0 0 0 0 0 0 0 0 
-59 -58 -49 28 -12 -12 -18 0 0 -1 0 0 -4 -19 1 1 0 -1 -10 0 0 0 0 0 0 0 -19 0 0 0 -1 0 0 0 1 0 0 0 0 0 0 0 1 0 0 0 0 0 0 -24 0 0 0 0 0 0 0 0 0 0 0 0 0 0 0 0 1 0 0 0 0 0 0 0 0 -10 0 0 0 0 0 0 -1 0 0 0 0 0 5 0 0 0 0 0 0 0 0 0 0 0 0 -19 0 0 0 0 0 0 0 0 0 0 0 28 0 2 0 0 0 0 -2 0 0 0 0 0 1 0 0 0 0 0 0 0 0 0 0 0 0 0 0 -3 0 0 0 0 0 0 0 0 0 0 0 0 0 0 0 0 0 0 0 0 0 0 1 0 0 0 0 0 0 0 0 0 1 0 0 0 0 0 0 0 0 0 0 0 0 0 0 0 0 0 0 0 0 0 0 0 0 0 0 0 0 0 0 0 0 0 0 0 0 0 0 0 1 0 0 0 0 0 1 0 0 0 0 0 0 0 0 0 0 0 0 0 -1 0 0 0 0 0 0 0 -2 0 0 0 0 0 0 0 0 0 0 0 0 0 0 0 0 0 0 0 0 0 0 0 0 0 0 0 0 0 0 0 0 0 0 0 0 0 0 0 0 0 0 0 0 0 0 0 0 0 0 0 0 0 0 0 0 0 0 0 0 0 -3 0 0 0 0 0 0 0 0 0 0 0 0 0 2 0 0 0 0 0 0 0 0 0 0 0 0 0 0 0 0 0 0 0 0 0 0 0 0 0 0 0 0 0 0 0 0 0 0 0 0 0 0 0 0 0 0 0 -8 1 -1 0 0 0 0 0 0 -30 0 0 0 0 -3 0 0 0 0 0 0 -1 0 0 0 0 0 0 0 0 0 -5 5 0 0 0 -1 0 0 0 0 0 1 0 2 0 0 0 0 0 0 0 0 0 0 0 0 0 0 0 0 0 0 0 0 0 0 3 0 0 0 0 -2 0 0 0 0 0 0 0 0 0 0 0 0 0 0 0 0 0 0 0 0 0 0 0 0 0 0 0 0 0 0 0 0 0 0 0 0 0 0 0 0 0 0 0 0 0 0 0 0 0 0 0 0 0 0 0 0 0 0 0 0 0 0 0 0 0 0 0 0 0 0 0 0 0 0 0 0 0 0 0 0 0 0 0 0 0 0 0 0 0 0 
0 -9 1 0 0 0 0 0 0 -10 0 0 0 -43 0 0 0 0 6 -7 0 -9 0 0 0 0 0 0 0 0 0 -9 0 0 0 0 0 0 0 0 0 0 0 0 0 0 0 1 0 0 -3 -7 0 0 0 -10 0 0 0 0 0 0 -9 0 0 -3 0 0 0 0 -2 0 0 0 0 0 0 0 0 0 0 0 3 0 0 0 0 0 9 0 0 0 0 0 0 0 0 0 0 0 0 -43 0 0 0 0 0 0 0 0 0 0 0 0 0 0 0 0 0 0 0 0 0 0 0 0 0 3 0 0 0 0 0 0 0 0 0 0 0 0 0 0 0 0 0 0 0 0 0 0 0 0 0 0 0 0 0 0 0 0 0 0 0 0 0 0 0 0 0 0 0 0 0 0 6 0 0 0 0 0 0 0 0 0 0 0 0 0 0 0 0 0 0 0 0 0 0 0 0 0 0 0 0 0 -9 0 0 0 0 0 0 -4 0 0 0 0 0 0 0 0 -3 -3 0 0 0 0 0 0 0 0 0 0 0 0 0 0 0 0 0 0 0 0 0 0 0 0 0 0 0 0 0 0 0 0 0 0 0 0 0 0 0 0 0 0 0 0 0 0 0 0 0 0 0 0 0 0 0 0 -3 0 0 0 0 -1 0 0 0 0 0 0 0 0 0 0 0 0 0 0 0 -7 0 0 0 0 0 0 0 0 0 0 0 0 0 0 0 0 0 0 0 0 0 0 0 0 0 -3 0 0 0 0 -62 0 0 0 0 0 0 0 0 0 0 0 0 0 0 0 0 0 0 0 0 0 0 0 0 0 0 0 0 0 0 0 0 0 0 6 0 0 0 0 0 0 0 0 0 0 0 0 0 0 0 0 -9 -6 0 0 0 0 0 0 0 0 0 -5 9 0 0 0 3 3 0 0 -7 0 0 0 0 0 0 0 0 0 0 0 0 0 0 0 0 1 0 0 0 0 0 -2 0 0 0 0 0 0 0 0 0 0 0 0 3 0 0 0 0 0 0 0 0 0 0 0 0 0 0 0 0 0 0 0 0 0 0 0 0 0 0 0 0 0 0 0 0 0 0 0 0 0 0 0 0 0 0 0 0 0 0 0 0 0 0 0 0 0 0 0 0 0 0 0 0 0 0 0 0 0 0 0 0 0 0 0 0 0 0 0 0 0 0 0 0 0 0 0 0 0 0 
0 -2 0 0 0 0 0 0 0 0 0 0 0 0 0 0 0 0 0 0 0 0 0 0 0 0 0 0 0 0 0 0 0 0 0 0 0 0 0 0 0 0 0 0 0 0 0 0 0 6 0 0 0 0 0 -2 0 0 0 0 0 0 0 0 0 0 0 0 0 0 0 0 0 0 0 -6 0 0 0 0 0 0 0 0 0 0 0 0 0 0 0 0 0 0 0 0 0 0 0 0 0 0 0 0 0 0 0 0 0 0 0 0 0 0 0 0 0 0 0 0 0 0 0 0 0 0 0 0 0 0 0 0 0 0 0 0 0 0 0 0 0 0 0 0 0 0 0 0 0 0 0 0 0 0 0 0 0 0 0 0 0 0 0 0 0 0 0 0 0 0 0 0 0 0 6 0 0 0 0 0 0 0 0 0 0 0 0 0 0 0 0 0 0 0 0 0 0 0 0 0 0 0 0 0 0 0 0 0 0 0 0 0 0 0 0 0 0 0 0 0 0 0 0 0 0 0 0 0 0 0 0 0 0 0 0 0 0 0 0 0 0 0 0 0 0 0 0 0 0 0 0 0 0 0 0 0 0 0 0 0 0 0 0 0 0 0 0 0 0 0 0 0 0 0 0 0 0 0 0 0 0 0 0 0 0 0 0 0 0 0 0 0 0 0 0 0 0 0 0 0 0 0 0 0 0 0 0 0 0 0 0 0 0 0 0 0 0 0 0 0 0 0 0 0 0 0 0 0 0 0 0 0 0 0 0 0 0 0 0 0 0 0 0 0 0 0 0 0 0 0 0 0 0 0 0 0 0 0 0 0 0 0 0 0 0 6 0 0 0 0 0 0 0 0 0 0 0 0 0 0 0 0 0 -6 0 0 0 0 0 0 0 0 0 0 0 0 0 0 0 0 0 0 0 0 0 0 0 0 0 0 0 0 0 0 0 0 0 0 0 0 0 0 0 0 0 0 0 0 0 0 0 0 0 0 0 0 0 0 0 0 0 0 0 0 0 0 0 0 0 0 0 0 0 0 0 0 0 0 0 0 0 0 0 0 0 0 0 0 0 0 0 0 0 0 0 0 0 0 0 0 0 0 0 0 0 0 0 0 0 0 0 0 0 0 0 0 0 0 0 0 0 0 0 0 0 0 0 0 0 0 0 0 0 0 0 0 0 0 0 0 0 0 0 0 0 
-10 -21 -10 0 -8 0 0 0 0 -35 -8 -8 0 0 -8 0 0 0 -10 -7 0 0 0 25 0 -1 0 0 0 0 0 0 -10 0 0 0 0 0 0 -10 0 0 -33 0 0 0 0 25 0 6 0 -7 0 0 0 -10 0 0 0 -4 0 0 0 0 0 -28 0 -1 0 0 -2 0 0 -8 0 21 0 0 0 0 0 0 0 0 0 0 0 0 0 0 0 0 0 0 0 0 0 10 0 0 0 0 0 0 0 0 0 0 -4 0 0 0 0 0 0 0 0 0 0 0 0 0 0 0 0 -4 0 0 0 0 0 0 -10 0 0 0 0 0 0 0 0 -7 0 0 0 0 0 0 0 0 0 0 -8 -4 0 0 0 0 0 0 0 0 0 0 0 0 0 22 0 0 0 0 0 0 6 0 0 0 0 0 0 0 0 0 0 0 22 0 0 0 0 0 0 0 0 0 0 0 0 0 0 0 0 0 0 0 0 0 0 0 -1 0 0 0 0 0 0 -4 0 0 0 -28 0 0 0 0 0 0 0 0 0 0 0 0 0 0 0 0 -22 0 0 1 0 -26 0 0 0 0 0 0 0 0 0 0 0 0 0 0 0 0 0 0 0 0 0 0 0 0 0 0 0 0 0 0 0 0 0 0 0 0 0 0 0 0 0 0 0 0 0 0 -9 0 0 0 0 0 0 0 -4 -7 -10 -7 0 0 -29 -18 0 0 0 0 0 0 0 0 0 0 0 0 10 0 0 0 0 0 0 0 0 0 0 0 0 0 0 0 0 0 0 1 0 0 0 0 0 0 0 0 0 0 0 0 0 0 0 0 0 0 0 1 0 0 0 0 -1 0 0 -27 0 0 0 0 0 0 0 0 0 0 0 0 0 0 0 0 0 -6 0 0 0 0 0 0 0 0 0 0 0 0 0 0 0 28 0 0 -7 0 0 22 0 0 0 0 0 0 0 0 0 0 0 0 0 0 0 0 -9 0 4 7 10 7 0 29 -26 0 0 0 -10 0 0 0 0 0 0 0 0 0 0 0 0 0 0 0 0 0 0 0 -1 0 0 0 0 0 0 0 0 0 0 0 0 0 0 0 0 0 0 0 0 0 0 0 0 0 0 0 0 0 0 0 0 0 0 0 0 0 0 0 0 0 0 0 0 0 0 0 0 0 0 0 0 0 0 0 0 0 0 0 0 0 0 0 0 0 0 0 0 0 0 
0 -18 -9 0 -81 -81 0 0 0 0 0 0 -4 0 0 0 0 0 -5 0 -2 0 0 0 0 0 0 0 0 0 0 0 0 0 0 -1 0 0 0 0 0 0 5 0 0 0 0 0 0 0 0 0 0 0 0 0 0 0 0 0 1 0 0 0 0 0 0 0 0 0 0 0 0 0 0 0 0 0 -3 0 0 0 0 0 0 0 0 0 0 0 0 0 0 0 0 0 1 0 1 0 0 0 0 0 0 0 0 0 0 0 0 0 0 0 0 0 0 0 0 0 0 0 2 0 0 0 0 0 0 1 0 0 0 0 0 0 0 -5 0 0 0 0 0 0 0 0 0 0 0 0 0 0 0 0 0 0 0 0 0 0 0 0 0 0 0 0 0 0 0 0 0 0 0 0 0 0 0 0 0 0 0 0 0 0 0 0 0 0 0 0 0 0 0 0 0 0 0 0 0 0 0 0 0 0 0 0 0 0 0 0 0 0 0 0 0 0 0 0 0 0 0 0 0 0 0 0 0 0 0 0 0 2 0 0 0 0 0 0 0 0 0 1 0 0 0 0 -2 0 0 0 0 0 0 -98 0 0 0 0 0 0 0 0 0 0 0 0 0 0 0 0 0 0 0 0 0 0 0 0 0 0 0 0 0 0 0 0 0 0 0 0 0 0 0 0 0 0 0 0 0 0 0 0 0 0 0 0 0 0 0 0 0 0 0 0 0 0 0 0 0 0 0 0 0 0 0 0 0 0 0 0 0 -1 0 0 0 0 0 1 0 0 0 0 -1 0 0 0 0 0 0 0 0 0 0 0 0 0 0 1 0 0 0 0 -8 0 0 -5 0 0 0 0 0 0 0 0 0 0 -90 0 0 1 0 0 0 0 0 0 0 0 0 0 0 0 0 0 0 0 0 0 0 0 0 0 0 0 0 0 0 2 0 0 0 0 0 -1 0 0 0 0 0 0 0 0 0 0 0 0 0 0 0 0 0 0 0 0 0 0 0 0 0 0 0 0 0 0 0 0 0 0 0 0 0 0 0 0 0 -1 0 0 0 0 0 0 0 0 0 0 0 0 0 0 0 0 0 0 0 0 0 0 0 0 0 0 0 0 0 0 0 0 0 0 0 0 0 0 0 0 0 0 0 0 0 0 0 0 0 0 0 0 0 0 0 0 0 0 0 0 0 0 0 0 0 0 0 0 0 
0 -10 -10 0 -2 0 0 -2 0 -65 0 0 0 0 0 0 0 0 -10 0 0 0 0 0 0 0 0 0 0 0 0 0 0 0 0 0 -2 0 0 0 -2 0 0 0 0 0 0 0 0 0 0 0 0 0 0 0 0 0 0 0 0 0 0 0 0 0 0 0 0 0 0 0 0 0 0 -10 0 0 0 0 0 0 0 0 0 0 0 0 0 0 0 0 0 0 0 0 0 0 0 0 0 0 0 0 0 0 0 0 0 0 0 0 0 0 0 0 0 0 0 0 0 0 0 0 0 0 0 0 0 0 0 0 0 0 0 0 0 0 0 2 0 0 2 0 0 0 0 0 0 0 0 0 0 0 0 0 0 0 0 0 0 0 0 0 0 0 0 0 0 0 0 0 0 0 0 0 0 0 0 0 0 0 0 0 0 0 2 0 0 0 0 0 0 0 0 0 0 0 0 0 0 0 0 0 0 0 0 0 0 0 0 0 0 0 0 0 0 0 0 0 0 0 0 0 0 0 0 0 0 0 0 0 0 0 0 0 0 0 -2 0 0 0 0 0 0 0 0 0 0 0 0 0 0 0 0 0 0 0 0 0 0 0 0 0 0 0 0 0 0 0 0 0 0 0 0 0 0 0 0 0 0 0 0 0 0 0 0 0 0 0 0 0 0 0 0 0 0 0 0 0 0 0 0 0 -2 0 0 0 0 0 0 0 0 0 0 0 0 0 0 0 0 0 0 0 0 0 0 0 0 0 0 0 0 0 0 0 0 0 0 0 0 0 0 0 0 0 0 0 0 0 0 0 -2 0 0 0 0 0 0 0 -2 0 0 0 -65 0 0 0 0 0 0 0 0 0 0 0 0 0 0 0 0 0 0 0 0 0 0 0 0 0 0 0 0 0 0 0 0 0 0 0 0 0 0 0 0 2 0 0 0 0 0 0 0 0 0 0 0 0 0 0 0 0 0 0 0 0 0 0 0 2 0 0 0 0 0 0 0 0 0 0 0 0 0 0 0 0 0 0 0 0 2 0 0 0 0 0 0 2 0 0 0 0 0 0 0 0 0 0 0 0 0 0 0 0 0 0 0 0 0 0 0 0 0 0 0 0 0 0 0 0 0 0 0 0 0 0 0 0 0 0 0 0 0 0 0 0 0 0 0 0 0 0 0 0 0 0 0 0 0 0 0 0 0 0 0 
-14 -66 -62 -14 -25 -2 0 -2 0 -74 -8 -8 -61 0 13 -2 0 -1 -10 -64 10 0 9 0 0 0 0 0 -91 0 0 0 0 -1 -1 -3 2 0 0 0 2 6 0 0 -2 0 0 0 0 11 0 0 0 0 0 7 -2 0 0 0 0 -64 0 0 9 -11 0 0 0 6 0 0 -24 -7 0 -21 0 0 3 3 -64 0 0 0 0 -5 0 0 -9 5 0 0 0 0 0 0 0 0 0 0 0 0 0 0 0 3 0 0 0 -91 0 0 0 -14 5 0 0 0 0 0 0 0 5 0 1 0 0 0 0 0 -8 0 0 0 0 0 0 -2 0 0 1 -13 -71 0 0 0 0 0 0 0 0 0 -7 0 0 0 0 0 0 0 0 0 0 0 0 0 0 11 0 0 0 0 -3 0 0 0 0 0 1 5 0 0 0 0 5 0 24 0 0 0 0 0 0 0 0 0 0 0 0 0 0 0 0 0 0 0 0 0 0 0 0 14 3 0 0 0 0 0 1 0 0 -24 0 0 -3 5 0 0 0 0 0 0 0 0 -1 0 0 5 -24 0 0 0 0 7 0 0 0 0 0 -3 0 0 13 0 0 0 0 0 0 0 0 0 0 0 0 0 0 0 0 0 0 0 0 0 0 0 0 0 0 0 0 0 0 0 0 0 -8 0 0 0 0 0 0 0 0 0 0 0 0 0 0 -7 0 0 -37 -7 0 0 3 0 0 0 0 0 0 0 13 0 0 0 0 0 0 0 0 0 0 0 -6 0 0 0 0 0 0 0 0 0 0 0 -5 0 0 0 -2 0 2 0 0 0 0 0 -13 0 0 0 0 0 0 0 0 0 -8 0 1 11 0 2 19 0 0 13 0 0 -5 0 0 0 0 0 0 0 0 0 0 -1 0 -5 0 0 0 0 0 -5 -9 1 0 -4 0 24 3 0 0 0 1 24 0 0 3 0 0 0 0 0 0 0 0 0 0 0 8 0 -7 0 0 0 0 7 0 37 7 -3 0 -13 0 0 0 0 0 6 0 0 5 0 0 2 -2 0 0 0 13 0 0 0 0 0 0 0 0 0 0 0 0 0 0 0 0 0 0 0 0 0 0 0 0 0 0 0 0 0 0 0 0 0 0 0 0 0 0 0 0 0 0 0 0 0 0 0 0 0 0 0 0 0 0 0 0 0 0 0 0 0 0 0 0 0 0 0 0 0 0 0 0 0 0 
-7 -38 -19 0 -27 -4 -4 -2 0 0 -8 -8 -4 0 -11 0 0 0 -10 0 -11 0 -9 -16 0 -5 0 0 0 0 0 0 -7 0 0 -1 -8 0 3 -7 -8 -4 16 -5 0 0 0 -16 0 1 0 1 0 0 0 -10 0 0 0 0 0 -1 0 0 -9 0 -4 0 0 0 8 0 -31 2 0 0 0 0 0 -3 -1 0 0 0 -1 0 0 0 5 0 0 -9 0 0 0 0 0 7 0 0 0 0 0 0 0 0 0 0 1 0 0 0 0 0 0 0 0 0 0 0 0 0 -5 0 0 0 0 0 0 0 0 0 -7 -1 0 0 0 5 0 -72 0 -4 0 0 0 0 0 0 0 0 0 0 2 0 0 0 6 0 0 0 13 -1 0 0 0 0 0 0 0 0 0 0 0 0 6 0 0 0 0 0 0 0 0 0 0 0 0 0 0 0 0 0 0 0 0 0 0 0 0 0 13 0 0 0 0 -7 0 0 0 0 0 0 0 0 0 0 0 0 0 0 0 -7 0 0 0 3 0 0 0 0 0 2 0 0 0 0 0 0 0 0 0 0 0 -10 0 0 -2 0 0 3 0 -7 7 0 0 0 -6 1 0 0 0 0 0 0 0 0 0 0 0 0 0 0 0 0 0 0 0 0 0 0 0 0 0 0 0 0 0 -84 0 0 8 0 0 0 0 0 0 0 0 0 -7 -7 0 0 -4 10 0 0 0 0 0 0 0 0 0 0 13 0 7 0 0 6 0 0 0 0 0 0 0 0 0 0 0 0 0 0 0 0 0 0 0 0 0 0 0 0 0 0 0 9 0 0 0 0 0 0 0 0 0 0 -12 0 -8 0 0 -3 0 4 42 0 0 0 0 0 7 1 -3 0 0 0 0 0 0 -6 0 0 0 0 0 0 0 0 0 -5 5 0 0 0 0 7 0 0 0 0 0 0 0 2 -3 0 -5 -1 13 -1 0 0 0 0 0 0 0 0 2 0 0 0 7 7 0 4 -10 0 0 -13 -7 -6 0 0 0 0 0 0 0 0 0 0 0 0 0 -9 0 0 0 0 0 0 0 12 0 0 0 0 0 0 0 0 0 0 0 0 0 0 0 0 0 0 0 0 0 0 0 0 0 0 0 0 0 0 0 0 0 0 0 0 0 0 0 0 0 0 0 0 0 0 0 0 0 0 0 0 0 0 0 0 0 0 0 0 0 0 0 0 0 0 0 
-61 -35 -25 -7 -91 -74 -42 -2 10 0 -8 -15 -6 -30 -24 -5 -24 6 -10 0 -60 -2 -75 4 0 -5 -12 0 0 0 -1 0 -54 -8 0 -1 -10 6 3 -54 -10 -6 23 -4 0 -1 -1 3 5 0 -14 0 0 0 0 -4 -1 6 7 12 0 0 0 0 9 0 -30 9 0 0 0 0 3 0 0 -21 0 0 3 1 0 0 6 0 1 -13 0 -1 0 -1 0 0 0 0 0 -1 0 -10 0 0 0 0 0 0 0 0 0 0 5 0 41 0 8 0 0 13 9 0 0 0 -2 0 -2 0 -6 4 -29 -65 0 0 -17 0 -59 -1 0 -42 0 5 0 12 15 -7 0 0 0 3 0 0 -5 1 0 8 0 4 -2 -6 7 0 0 0 0 0 0 0 1 0 0 22 0 0 0 0 0 0 6 0 3 0 0 5 0 0 0 0 -1 0 22 0 0 0 0 0 -6 0 0 0 2 -6 0 0 0 -30 0 0 -1 4 0 0 -8 0 0 0 0 0 1 0 0 4 15 0 -6 0 0 0 0 16 0 0 0 0 1 0 0 6 1 0 0 5 -22 0 0 0 -2 0 0 0 0 0 0 -1 0 4 0 0 0 0 -7 1 0 0 0 0 0 0 0 0 0 0 0 0 0 0 0 0 0 0 0 0 -14 0 3 0 0 1 0 0 -17 0 0 0 0 0 0 -3 0 0 0 0 4 0 10 -7 -8 -42 -80 0 0 0 0 0 0 0 0 0 0 0 7 0 3 0 -92 7 10 2 0 -14 0 0 0 0 0 0 0 -3 0 0 0 0 0 0 -5 30 0 0 -1 0 0 0 0 -2 0 0 0 0 3 -3 0 0 0 0 -12 0 0 -4 0 -5 0 2 -1 0 0 -2 -21 12 2 1 -5 5 -1 0 5 -3 -1 -6 -1 0 0 1 0 0 0 -2 2 0 0 0 0 -9 6 0 0 0 -1 -6 1 22 2 0 1 0 -4 0 0 -1 -14 -8 0 0 -3 -1 17 0 0 3 -4 0 -10 7 8 80 0 0 0 -7 -61 -7 -10 -7 -65 0 0 0 5 -30 0 1 0 0 0 2 0 -3 8 -5 0 0 0 12 0 0 0 0 0 0 0 0 0 0 0 0 0 0 0 0 0 0 0 0 0 0 0 0 0 0 0 0 0 0 0 0 0 0 0 0 0 0 0 0 0 0 0 0 0 0 0 0 0 0 0 0 0 0 0 0 0 0 0 0 0 0 0 0 0 0 0 
#OUTPUT END
Model has been successfully processed
